1000 1569
1 2 3 4 5 6 7 8 9 10 11 12 13 14 15 16 17 18 19 20 21 22 23 24
0 5 7 12 14 18 19 20 25 26 27 28 29 30 31 32 33 34 35 36 37
0 14 38 39 40 41 42 43 44 45
0 13 46 47 48 49 50 51 52 53 54 55 56 57 58 59 60 61 62 63 64 65 66 67 68 69 70 71 72 73 74 75
0 22 76 77 78 79 80 81 82 83 84 85 86 87 88 89 90 91 92 93 94 95 96 97 98 99 100 101 102 103 104 105 106 107 108 109 110 111 112 113 114 115 116 117 118 119 120 121 122 123 124 125 126 127 128 129 130 131 132
0 1 8 12 14 15 18 20 21 133 134 135 136 137 138 139 140 141 142 143 144
0 145 146 147 148 149 150 151 152 153 154 155 156 157 158 159 160 161 162 163 164 165 166 167 168 169 170 171 172 173 174 175 176 177 178 179 180 181 182 183 184 185 186 187 188 189 190 191 192 193 194 195 196 197 198 199 200 201 202 203 204 205 206 207 208 209 210 211 212 213 214 215 216 217 218 219 220 221 222 223 224 225 226 227 228 229 230 231 232 233 234 235 236 237 238 239 240 241 242 243 244 245 246 247 248 249 250 251 252 253 254 255 256 257 258 259 260 261 262 263 264 265 266 267 268 269 270 271 272 273 274 275 276 277 278 279 280 281 282 283 284 285 286 287 288 289 290 291 292 293 294 295 296 297 298 299 300 301 302 303 304 305 306 307 308 309 310 311 312 313 314 315 316 317 318 319 320 321 322 323 324 325 326 327 328 329 330 331 332 333 334 335 336 337 338 339 340 341 342 343 344 345 346 347 348 349 350 351 352 353 354 355 356 357 358 359 360 361 362 363 364 365 366 367 368 369 370 371 372 373 374 375 376 377 378 379 380 381 382 383 384 385 386 387 388 389 390 391 392 393 394 395 396 397 398 399 400 401 402 403 404 405 406 407 408 409 410 411 412 413 414 415 416 417 418 419 420 421 422 423 424 425 426 427 428 429 430 431 432 433 434 435 436 437 438 439 440 441 442 443 444 445 446 447 448 449 450 451 452 453 454 455 456 457 458 459 460 461 462 463 464 465 466 467 468 469 470 471 472 473 474 475 476 477 478 479 480 481 482 483 484 485 486 487 488 489 490 491 492 493 494 495 496 497 498 499 500 501 502 503 504 505 506 507 508 509 510 511 512 513 514 515 516 517 518 519 520 521 522 523 524 525 526 527 528 529 530 531 532 533 534 535 536 537 538 539 540 541 542 543 544 545 546 547 548 549 550 551 552 553 554 555 556 557 558 559 560 561 562 563 564 565 566 567 568 569 570 571 572 573 574 575 576 577 578 579 580 581 582 583 584 585 586 587 588 589 590 591 592 593 594 595 596 597 598 599 600 601 602 603 604 605 606 607 608 609 610 611 612 613 614 615 616 617 618 619 620 621 622 623 624 625 626 627 628 629 630 631 632 633 634 635 636 637 638 639 640 641 642 643 644 645 646 647 648 649 650 651 652 653 654 655 656 657 658 659 660 661 662 663 664 665 666 667 668 669 670 671 672 673 674 675 676 677 678 679 680 681 682 683 684 685 686 687 688 689 690 691 692 693 694 695 696 697 698 699 700 701 702 703 704 705 706 707 708 709 710 711 712 713 714 715 716 717 718 719 720 721 722 723 724 725 726 727 728 729 730 731 732 733 734 735 736 737 738 739 740 741 742 743 744 745 746 747 748 749 750 751 752 753 754 755 756 757 758 759 760 761 762 763 764 765 766 767 768 769 770 771 772 773 774 775 776 777 778 779 780 781 782 783 784 785 786 787 788 789 790 791 792 793 794 795 796 797 798 799 800 801 802 803 804 805 806 807 808 809 810 811 812 813 814 815 816 817 818 819 820 821 822 823 824 825 826 827 828 829 830 831 832 833 834 835 836 837 838 839 840 841 842 843 844 845 846 847 848 849 850 851 852 853 854 855 856 857 858 859 860 861 862 863 864 865 866 867 868 869 870 871 872 873 874 875 876 877 878 879 880 881 882 883 884 885 886 887 888 889 890 891 892 893 894 895 896 897 898 899 900 901 902 903 904 905 906 907 908 909 910 911 912 913 914 915 916 917 918 919 920 921 922 923 924 925 926 927 928 929 930 931 932 933 934 935 936 937 938 939 940 941 942 943 944 945 946 947 948 949 950 951 952 953 954 955 956 957 958 959 960 961 962 963 964 965 966 967 968 969 970 971 972 973 974 975 976 977 978 979 980 981 982 983 984 985 986 987 988 989 990 991 992 993 994 995 996 997 998 999
0 1
0 5 14 22
0 10 14 15 22 32 114
0 9 14 15
0 94
0 1 5 14 18 20 22
0 3 57 58 70
0 1 2 5 8 9 10 12 15 17 18 19 135 139 140
0 5 9 10 14 22 94
0
0 14 751
0 1 5 12 14 20 22
0 1 14
0 1 5 12 18
0 5
0 4 8 9 12 15 18 87 89 94 105 107 110 111 121 123 128 132
0
0 502
1
1 346
1
1
1 712
1
1
1 9 109 797
1
1
1
1 182 321 431 719
1
2 680
2
2
2
2
2
2
2
3
3
3 52 63 64
3
3 71 74
3 53 62 69 75
3 48 64
3 51
3
3 64 72
3
3 13
3 13
3
3
3
3 51 69
3 48 64
3 48 52 55 63 72 228
3 72 583
3 72
3
3 74
3 51 62 72
3 13 71 74
3 50 70 74 164 461
3 55 64 65 66 69 122 269 271 307 390 433 445 575 583 611 627 677 799 853 861 892 908 947
3
3 50 68 70 71
3 51
4 77 82 84 86 93 95 97 129
4 76 95
4 87 111 132
4 105 112
4 609
4 115
4 76 84 95 97 112 117 236
4 87 89 105 112 123 124 132
4 76 82 95 97 129
4
4 76 95 129
4 22 78 83 89 91 94 104 105 106 107 109 110 111 112 114 121 123 128 132
4 94 105 112 121 123 124
4 22 83 87 90 108 109 114 118 120 123 124 132
4 89 105 112 123 124
4 87 94 123 128 132
4 793
4 76
4 11 15 22 87 88 91 104 105 106 107 109 111 121 123 128 132
4 76 77 82 84 86 97 99 108 116 117 129
4 106 117 193 201 207 538 624 699 727 869 970
4 76 82 84 95 99 116 117 129
4 113
4 95 97
4 129 139
4
4
4 125
4 87 94 111 132
4 22 79 83 87 88 90 94 107 111 112 114 123 124 127 132
4 87 94 96 111 129
4 22 87 94 105 111
4 89 95
4 32 87 89 94 110 111 123 128 132
4 22 87 109 127 132
4 22 78 87 94 104 105 106 107 109 121 128 130 132
4 79 82 83 87 88 90 105 114 123 124 127
4 98
4 9 87 89 105 112 123 124 127 132
4 81
4 95 97 129
4 82 95 96 97 129
4 89
4
4 89 130 132 135
4 22 87 88 94 111 128 132 135
4 72 433
4 22 83 87 88 89 90 91 94 105 109 112 114 124 127 132
4 83 88 89 90 105 112 114 123 127 132
4 103 521
4
4 105 110 112 114 123 124 132
4 22 87 91 94 109 111 121 132
4 76 84 86 95 97 100 106 116 117
4 111 120 132
4 391 642 657 679 875
4 22 78 83 87 89 91 94 104 105 109 110 111 114 120 121 123 124 127 128 130
5 140
5 141
5 14 120 121
5 814
5 236
5
5 14 100
5 14 133 679 782 858
5 134
5 938
5 462 773
5 199 381 490 516 631 939
6 256
6 428 475 731 806
6 485
6
6
6
6
6
6
6 288 610
6
6 161 889 992
6
6
6
6 583
6 156 600
6 426 851
6 604 859
6 71 562
6
6
6 260 920
6 506
6 493
6
6 992
6
6 454
6
6 498
6
6
6
6
6
6
6 36
6 926
6
6
6
6
6
6 784
6
6
6
6 96
6 571
6
6
6 774
6 238 495
6 144 316 806 989
6 263
6 96
6 646 709
6
6
6
6
6 96 588
6
6
6
6 798
6
6
6
6
6 561 635 760 898 949
6
6 729 992
6
6
6
6 884
6 981
6
6 524
6
6 954 990
6 64
6
6
6
6
6 887
6
6
6 82 137
6
6 198 495
6 907
6
6 760
6
6 688
6 402 590 835
6
6
6 583
6
6
6 688
6
6
6
6
6
6 145
6
6
6
6 167
6
6
6 200 372 468
6 617
6
6 733
6 971
6 427
6 72 773
6
6 72 627 759
6
6
6 475
6
6 964
6 672
6
6 740 857 914
6
6
6 811
6 477 904
6 713 718 731
6
6
6
6 154
6
6
6 312 431 857
6
6
6
6
6 504
6
6
6
6
6
6
6 955
6
6 862
6
6 72 475
6
6
6 463 700 771
6 498
6 291 431 604 857
6
6
6 463 801
6 199 806 989
6
6
6
6 652
6 36
6
6
6 341 575
6
6
6
6 683 886
6
6
6 496 655
6 538 755
6 513
6 758
6
6
6
6
6
6
6 324 720
6 512
6
6
6
6 26
6
6
6
6 983
6 791
6
6 956
6
6 419
6
6
6
6
6
6 406 740 857 916 942
6
6 981
6
6
6
6
6
6 772
6
6 809
6 263
6
6 412
6
6
6
6 530
6
6
6 144
6
6
6
6
6
6
6
6
6 72 583
6 131
6
6
6
6
6
6
6
6
6 891
6
6 244 590
6 681
6
6 687
6 361 740 857 914
6
6 580
6
6
6 716
6 374 526
6 955
6
6
6 880
6
6
6 355
6
6
6
6
6 437
6
6 162 819 851 927
6 268
6 146 720
6
6
6 36 291 312 807 891 979
6
6 72 122
6
6 946 978
6 583
6 424
6
6
6
6
6
6
6
6 72 583 809
6
6
6
6
6
6
6
6
6 173
6 613
6
6
6 975
6
6
6 71
6 143
6 310 315 771
6
6
6 610
6
6 263 499 966
6
6
6 504 964
6
6 745
6 778
6 146 274 307 601 806
6 845 955
6 283
6
6 669
6 653
6 809
6 548
6
6
6 147
6 918
6
6
6
6 144
6
6
6 169 964
6
6 198 238 914
6 331 716 975
6
6 175 311 670
6 468 966
6
6 566
6 24
6
6 296 471
6
6 168
6 591 742
6 578 628 870
6
6
6
6 342
6 333 778
6
6
6 144
6
6
6
6
6 125 566
6
6
6 225
6
6 412 914
6
6
6
6 378
6
6 536 764
6
6
6
6 532
6
6 96 332
6
6
6
6
6
6
6
6
6
6 482
6
6
6
6
6
6
6
6
6
6
6
6
6 216 635 949
6 164
6
6
6
6 501 521 922
6
6
6
6
6 194
6
6 972
6 790
6 72 324
6
6
6 508 628 870
6
6 408 679 920 979
6
6
6 65 72 160 247 390 436 445 624 640 744 855 955
6
6
6
6
6 207
6 820
6 244 402 646 936 976
6 507 637
6 978
6 648
6 857
6
6
6
6 614
6
6 161
6 475
6
6
6 163 312 683 824
6 744
6
6
6
6 80
6 154 466
6 72
6
6 455 945
6 598 807
6
6 788
6 264
6
6
6
6 938
6
6 955
6 96 583
6
6
6 72 271
6 508 578 653
6
6
6 144
6
6
6
6 216 561
6
6 591
6
6
6 583
6
6 131
6
6
6
6 202 590 869
6
6 593 764
6
6
6
6 320 772
6 480 628 870
6
6 331 975
6
6 131
6 843
6
6 913
6
6
6
6
6 722
6
6
6
6 479
6 498
6
6 277
6
6
6 730
6
6 72
6
6 131 140 580 858
6 38
6 403
6
6 328 604 859 886
6
6
6
6 405
6 243 250
6
6
6
6
6
6
6 932
6
6
6
6 96
6 310
6
6
6
6
6
6
6
6
6 202 933
6
6
6 29
6 284 718
6
6
6 411 496
6
6 284 713
6 36
6 341 428 809
6
6 665 856 920
6
6
6
6
6 96
6
6 218 992
6 675
6 146 284
6 799 861
6 266
6 813
6
6
6
6
6
6 279 361 406
6
6 507
6
6 583 605
6 473
6
6
6
6
6 892
6 17
6
6
6
6 332
6
6
6 334
6 271
6 216 241
6
6
6
6 532 648
6
6
6
6 982
6
6
6 310 463 801
6 369 652
6 143 269
6 197
6
6
6
6 474 513 870 974
6
6
6
6 140
6
6 189
6 951
6 861
6
6 616
6
6 574
6 351
6
6 92
6 877
6
6
6 32
6 211
6 72 732
6 857
6 315 771
6
6
6
6
6 146 199 316 475 873 943 958
6 431 614
6
6 371 445 481 720
6
6 282 834 900
6
6 734
6 136
6
6
6
6
6 426
6 589
6 835
6
6
6 604
6
6
6
6
6
6
6
6
6
6 811 900
6 244 821
6
6
6
6
6
6
6
6 658 890
6
6 476 955
6
6
6 939
6
6
6 162 426
6
6 72
6
6 583
6 722 889
6 279 291 312 361 406 594 800 860 914 942
6 140 679
6 163 683
6 857 976
6 72 732 786
6 305
6
6
6
6
6
6
6 96 646
6 508 578 653 778
6
6
6 806 999
6
6 131
6
6 794
6
6
6 416
6
6
6
6 222
6
6 328 683
6 233
6
6 156 856
6 843
6 400 431
6 72 750
6
6
6
6
6
6 216
6
6 811 834
6
6
6
6 283
6
6
6 239
6 72
6 958
6 930
6
6
6 660
6 279 406 495 526 857
6
6 361
6
6 486
6
6 167 580 722
6
6 566
6
6
6
6 183
6 426 946
6
6
6 910 972 996
6
6 695
6 709
6
6
6 590 976
6 994
6 142 621
6 144 848
6
6
6 361 857
6 806
6
6 613
6 435 927 978
6 72
6
6 216 561
6
6 785
6
6
6 227
6 303 413 476 583 623 845
6 353
6
6 806 909
6 982
6
6
6
6
6 276 471 493
6
6 468 499
6
6
6
6 96
6 267
6 573 930
6
6 778
6 458 496 655
6 590 860 936
6
6 435 592 946
6 431 580
6
6 223 363
6 768 959
6 350
6
6
6
6
6
6 199 316
6 227
6
6 156 171 218 729
6
6 937
6
6 930
6
6
6 873
